
Gurobi 6.5.2 (linux64) logging started Wed Aug 31 10:35:25 2016

Optimize a model with 21 rows, 41 columns and 89 nonzeros
Coefficient statistics:
  Matrix range    [1e+00, 2e+00]
  Objective range [3e+00, 1e+02]
  Bounds range    [1e+00, 1e+00]
  RHS range       [1e+00, 1e+00]
Found heuristic solution: objective 440
Presolve removed 8 rows and 4 columns
Presolve time: 0.00s
Presolved: 13 rows, 37 columns, 74 nonzeros
Variable types: 0 continuous, 37 integer (37 binary)

Root relaxation: objective 2.607500e+02, 13 iterations, 0.00 seconds

    Nodes    |    Current Node    |     Objective Bounds      |     Work
 Expl Unexpl |  Obj  Depth IntInf | Incumbent    BestBd   Gap | It/Node Time

     0     0  260.75000    0    8  440.00000  260.75000  40.7%     -    0s
H    0     0                     324.0000000  260.75000  19.5%     -    0s
H    0     0                     289.0000000  260.75000  9.78%     -    0s
H    0     0                     278.0000000  260.75000  6.21%     -    0s
     0     0  272.50000    0    2  278.00000  272.50000  1.98%     -    0s
H    0     0                     275.0000000  272.50000  0.91%     -    0s

Cutting planes:
  Gomory: 2
  Cover: 8
  Zero half: 1

Explored 0 nodes (17 simplex iterations) in 0.00 seconds
Thread count was 8 (of 8 available processors)

Optimal solution found (tolerance 1.00e-04)
Best objective 2.750000000000e+02, best bound 2.750000000000e+02, gap 0.0%
